
Gurobi 10.0.1 (win64) logging started Sat Sep  9 15:28:35 2023

Set parameter LogFile to value "results-heuristic-start//log/URT_07_deadline.log"
Gurobi Optimizer version 10.0.1 build v10.0.1rc0 (win64)

CPU model: AMD Ryzen 7 3700X 8-Core Processor, instruction set [SSE2|AVX|AVX2]
Thread count: 8 physical cores, 16 logical processors, using up to 16 threads

Optimize a model with 145 rows, 124 columns and 500 nonzeros
Model fingerprint: 0xb7bfe44d
Model has 1 quadratic constraint
Variable types: 18 continuous, 106 integer (105 binary)
Coefficient statistics:
  Matrix range     [1e+00, 1e+06]
  QMatrix range    [1e+00, 1e+00]
  QLMatrix range   [1e+00, 1e+01]
  Objective range  [1e+00, 1e+00]
  Bounds range     [1e+00, 1e+00]
  RHS range        [1e+00, 3e+06]

User MIP start produced solution with objective 473 (0.00s)
Loaded user MIP start with objective 473

Presolve removed 29 rows and 65 columns
Presolve time: 0.02s
Presolved: 123 rows, 65 columns, 481 nonzeros
Variable types: 24 continuous, 41 integer (40 binary)

Root relaxation: objective 0.000000e+00, 25 iterations, 0.00 seconds (0.00 work units)

    Nodes    |    Current Node    |     Objective Bounds      |     Work
 Expl Unexpl |  Obj  Depth IntInf | Incumbent    BestBd   Gap | It/Node Time

     0     0    0.00000    0    4  473.00000    0.00000   100%     -    0s
H    0     0                      16.0000000    0.00000   100%     -    0s
H    0     0                      15.0000000    0.00000   100%     -    0s
     0     0    0.00000    0    4   15.00000    0.00000   100%     -    0s
H    0     0                      14.0000000    0.00000   100%     -    0s
     0     0    0.00000    0    2   14.00000    0.00000   100%     -    0s
     0     0    0.00000    0    3   14.00000    0.00000   100%     -    0s
H    0     0                      12.0000000    0.00000   100%     -    0s
     0     0    0.00000    0    2   12.00000    0.00000   100%     -    0s
     0     0    0.00000    0    4   12.00000    0.00000   100%     -    0s
H    0     0                      11.0000000    0.00000   100%     -    0s
H    0     0                      10.0000000    0.00000   100%     -    0s
     0     0    0.00000    0    5   10.00000    0.00000   100%     -    0s
     0     0    0.00000    0    4   10.00000    0.00000   100%     -    0s
     0     0    0.00000    0    3   10.00000    0.00000   100%     -    0s
     0     0    0.00000    0    6   10.00000    0.00000   100%     -    0s
     0     0    0.00000    0    6   10.00000    0.00000   100%     -    0s
     0     2    0.00000    0    6   10.00000    0.00000   100%     -    0s

Cutting planes:
  Learned: 41
  Cover: 6
  Implied bound: 6
  MIR: 3
  Flow cover: 6
  RLT: 4

Explored 3619 nodes (2117 simplex iterations) in 0.27 seconds (0.04 work units)
Thread count was 16 (of 16 available processors)

Solution count 8: 10 10 11 ... 473

Optimal solution found (tolerance 1.00e-04)
Best objective 1.000000000000e+01, best bound 1.000000000000e+01, gap 0.0000%
Warning: constraint name "precedence between 0,2 to 0,0 if x_[j,l,h,z,i]=1" has a space
Warning: constraint name "precedence between 0,2 to 0,0 if x_[j,l,h,z,i]=1" has a space
Warning: default constraint names used to write mps file
